JOB=CORRECT
MAXIMUM_NUMBER_OF_PROCESSORS=10
REFINE(CORRECT)=DISTANCE BEAM AXIS ORIENTATION CELL POSITION
DETECTOR=ADSC MINIMUM_VALID_PIXEL_VALUE=1 OVERLOAD=65534
DIRECTION_OF_DETECTOR_X-AXIS=1.000000 -0.000000 -0.000000
DIRECTION_OF_DETECTOR_Y-AXIS=-0.000000 1.000000 0.000000
TRUSTED_REGION=0.0 1.41
NX=2304 NY=2304 QX=0.0816 QY=0.0816
DETECTOR_DISTANCE=158.724
OSCILLATION_RANGE=1.00
X-RAY_WAVELENGTH=0.979000
ROTATION_AXIS= 1.000 0.001 0.003
INCIDENT_BEAM_DIRECTION= 0.003 -0.004 1.000
FRACTION_OF_POLARIZATION= 0.999
POLARIZATION_PLANE_NORMAL= 0.001 -1.000 -0.004
NAME_TEMPLATE_OF_DATA_FRAMES=insulin_1_0??.img
DATA_RANGE=1 20
INCLUDE_RESOLUTION_RANGE=23.67 0.00
FRIEDEL'S_LAW=TRUE
SPACE_GROUP_NUMBER=197
UNIT_CELL_CONSTANTS= 78.09  78.09  78.09  90.00  90.00  90.00
